nK = 3399;
nT = 8;
nI = 21;
L = 35;
TT = 690;
np = 1;
nc = 3;
b = [56, 29, 44, 34, 39, 68, 51, 67, 30, 43, 24, 45, 32, 44, 34, 25, 43, 21, 26, 65, 38];
d = [128, 97, 150, 150, 62, 143, 107, 118, 73, 76, 78, 107, 125, 103, 92, 50, 110, 144, 124, 117, 92];
m = [2.4, 1.3, 1.2, 1.7, 2.4, 1.9, 2.3, 2.2, 1.2, 1.7, 2.3, 2.2, 1.5, 1.4, 2.2, 1.1, 1.3, 1.3, 1.7, 1.8, 1.2];
pt = [0.35, 0.24, 0.22, 0.24, 0.32, 0.2, 0.34, 0.2];
st = [19.95, 10.32, 11.88, 12.24, 14.08, 10.2, 13.94, 10.8];
arc = {<1, 0, 1, 1, 0, 0, 0, [1, 1, 1, 1, 1, 1, 1, 1]>, <2, 1, 2, 1, 0, 0, 0, [1, 1, 1, 1, 1, 1, 1, 1]>, <3, 2, 3, 1, 0, 0, 0, [1, 1, 1, 1, 1, 1, 1, 1]>, <4, 3, 4, 1, 0, 0, 0, [1, 1, 1, 1, 1, 1, 1, 1]>, <5, 4, 5, 1, 0, 0, 0, [1, 1, 1, 1, 1, 1, 1, 1]>, <6, 5, 6, 1, 0, 0, 0, [1, 1, 1, 1, 1, 1, 1, 1]>, <7, 6, 7, 1, 0, 0, 0, [1, 1, 1, 1, 1, 1, 1, 1]>, <8, 7, 8, 1, 0, 0, 0, [1, 1, 1, 1, 1, 1, 1, 1]>, <9, 8, 9, 1, 0, 0, 0, [1, 1, 1, 1, 1, 1, 1, 1]>, <10, 9, 10, 1, 0, 0, 0, [1, 1, 1, 1, 1, 1, 1, 1]>, <11, 10, 11, 1, 0, 0, 0, [1, 1, 1, 1, 1, 1, 1, 1]>, <12, 11, 12, 1, 0, 0, 0, [1, 1, 1, 1, 1, 1, 1, 1]>, <13, 12, 13, 1, 0, 0, 0, [1, 1, 1, 1, 1, 1, 1, 1]>, <14, 13, 14, 1, 0, 0, 0, [1, 1, 1, 1, 1, 1, 1, 1]>, <15, 14, 15, 1, 0, 0, 0, [1, 1, 1, 1, 1, 1, 1, 1]>, <16, 15, 16, 1, 0, 0, 0, [1, 1, 1, 1, 1, 1, 1, 1]>, <17, 16, 17, 1, 0, 0, 0, [1, 1, 1, 1, 1, 1, 1, 1]>, <18, 17, 18, 1, 0, 0, 0, [1, 1, 1, 1, 1, 1, 1, 1]>, <19, 18, 19, 1, 0, 0, 0, [1, 1, 1, 1, 1, 1, 1, 1]>, <20, 19, 20, 1, 0, 0, 0, [1, 1, 1, 1, 1, 1, 1, 1]>, <21, 20, 21, 1, 0, 0, 0, [1, 1, 1, 1, 1, 1, 1, 1]>, <22, 21, 22, 1, 0, 0, 0, [1, 1, 1, 1, 1, 1, 1, 1]>, <23, 22, 23, 1, 0, 0, 0, [1, 1, 1, 1, 1, 1, 1, 1]>, <24, 23, 24, 1, 0, 0, 0, [1, 1, 1, 1, 1, 1, 1, 1]>, <25, 24, 25, 1, 0, 0, 0, [1, 1, 1, 1, 1, 1, 1, 1]>, <26, 25, 26, 1, 0, 0, 0, [1, 1, 1, 1, 1, 1, 1, 1]>, <27, 26, 27, 1, 0, 0, 0, [1, 1, 1, 1, 1, 1, 1, 1]>, <28, 27, 28, 1, 0, 0, 0, [1, 1, 1, 1, 1, 1, 1, 1]>, <29, 28, 29, 1, 0, 0, 0, [1, 1, 1, 1, 1, 1, 1, 1]>, <30, 29, 30, 1, 0, 0, 0, [1, 1, 1, 1, 1, 1, 1, 1]>, <31, 30, 31, 1, 0, 0, 0, [1, 1, 1, 1, 1, 1, 1, 1]>, <32, 31, 32, 1, 0, 0, 0, [1, 1, 1, 1, 1, 1, 1, 1]>, <33, 32, 33, 1, 0, 0, 0, [1, 1, 1, 1, 1, 1, 1, 1]>, <34, 33, 34, 1, 0, 0, 0, [1, 1, 1, 1, 1, 1, 1, 1]>, <35, 34, 35, 1, 0, 0, 0, [1, 1, 1, 1, 1, 1, 1, 1]>, <36, 0, 18, 18, 1, 0, 1, [0, 1, 1, 0, 0, 0, 0, 0]>, <37, 1, 19, 18, 1, 0, 1, [0, 1, 1, 0, 0, 0, 0, 0]>, <38, 2, 20, 18, 1, 0, 1, [0, 1, 1, 0, 0, 0, 0, 0]>, <39, 3, 21, 18, 1, 0, 1, [0, 1, 1, 0, 0, 0, 0, 0]>, <40, 4, 22, 18, 1, 0, 1, [0, 1, 1, 0, 0, 0, 0, 0]>, <41, 5, 23, 18, 1, 0, 1, [0, 1, 1, 0, 0, 0, 0, 0]>, <42, 6, 24, 18, 1, 0, 1, [0, 1, 1, 0, 0, 0, 0, 0]>, <43, 8, 26, 18, 1, 0, 1, [0, 1, 1, 0, 0, 0, 0, 0]>, <44, 9, 27, 18, 1, 0, 1, [0, 1, 1, 0, 0, 0, 0, 0]>, <45, 10, 28, 18, 1, 0, 1, [0, 1, 1, 0, 0, 0, 0, 0]>, <46, 11, 29, 18, 1, 0, 1, [0, 1, 1, 0, 0, 0, 0, 0]>, <47, 12, 30, 18, 1, 0, 1, [0, 1, 1, 0, 0, 0, 0, 0]>, <48, 13, 31, 18, 1, 0, 1, [0, 1, 1, 0, 0, 0, 0, 0]>, <49, 14, 32, 18, 1, 0, 1, [0, 1, 1, 0, 0, 0, 0, 0]>, <50, 15, 33, 18, 1, 0, 1, [0, 1, 1, 0, 0, 0, 0, 0]>, <51, 16, 34, 18, 1, 0, 1, [0, 1, 1, 0, 0, 0, 0, 0]>, <52, 17, 35, 18, 1, 0, 1, [0, 1, 1, 0, 0, 0, 0, 0]>, <53, 0, 20, 20, 2, 0, 0, [0, 0, 0, 1, 1, 0, 0, 0]>, <54, 1, 21, 20, 2, 0, 0, [0, 0, 0, 1, 1, 0, 0, 0]>, <55, 2, 22, 20, 2, 0, 0, [0, 0, 0, 1, 1, 0, 0, 0]>, <56, 3, 23, 20, 2, 0, 0, [0, 0, 0, 1, 1, 0, 0, 0]>, <57, 4, 24, 20, 2, 0, 0, [0, 0, 0, 1, 1, 0, 0, 0]>, <58, 5, 25, 20, 2, 0, 0, [0, 0, 0, 1, 1, 0, 0, 0]>, <59, 6, 26, 20, 2, 0, 0, [0, 0, 0, 1, 1, 0, 0, 0]>, <60, 7, 27, 20, 2, 0, 0, [0, 0, 0, 1, 1, 0, 0, 0]>, <61, 8, 28, 20, 2, 0, 0, [0, 0, 0, 1, 1, 0, 0, 0]>, <62, 9, 29, 20, 2, 0, 0, [0, 0, 0, 1, 1, 0, 0, 0]>, <63, 10, 30, 20, 2, 0, 0, [0, 0, 0, 1, 1, 0, 0, 0]>, <64, 11, 31, 20, 2, 0, 0, [0, 0, 0, 1, 1, 0, 0, 0]>, <65, 12, 32, 20, 2, 0, 0, [0, 0, 0, 1, 1, 0, 0, 0]>, <66, 13, 33, 20, 2, 0, 0, [0, 0, 0, 1, 1, 0, 0, 0]>, <67, 14, 34, 20, 2, 0, 0, [0, 0, 0, 1, 1, 0, 0, 0]>, <68, 15, 35, 20, 2, 0, 0, [0, 0, 0, 1, 1, 0, 0, 0]>, <69, 0, 20, 20, 3, 0, 1, [0, 0, 1, 1, 0, 0, 0, 0]>, <70, 1, 21, 20, 3, 0, 1, [0, 0, 1, 1, 0, 0, 0, 0]>, <71, 2, 22, 20, 3, 0, 1, [0, 0, 1, 1, 0, 0, 0, 0]>, <72, 3, 23, 20, 3, 0, 1, [0, 0, 1, 1, 0, 0, 0, 0]>, <73, 4, 24, 20, 3, 0, 1, [0, 0, 1, 1, 0, 0, 0, 0]>, <74, 5, 25, 20, 3, 0, 1, [0, 0, 1, 1, 0, 0, 0, 0]>, <75, 6, 26, 20, 3, 0, 1, [0, 0, 1, 1, 0, 0, 0, 0]>, <76, 7, 27, 20, 3, 0, 1, [0, 0, 1, 1, 0, 0, 0, 0]>, <77, 8, 28, 20, 3, 0, 1, [0, 0, 1, 1, 0, 0, 0, 0]>, <78, 9, 29, 20, 3, 0, 1, [0, 0, 1, 1, 0, 0, 0, 0]>, <79, 10, 30, 20, 3, 0, 1, [0, 0, 1, 1, 0, 0, 0, 0]>, <80, 11, 31, 20, 3, 0, 1, [0, 0, 1, 1, 0, 0, 0, 0]>, <81, 12, 32, 20, 3, 0, 1, [0, 0, 1, 1, 0, 0, 0, 0]>, <82, 13, 33, 20, 3, 0, 1, [0, 0, 1, 1, 0, 0, 0, 0]>, <83, 14, 34, 20, 3, 0, 1, [0, 0, 1, 1, 0, 0, 0, 0]>, <84, 15, 35, 20, 3, 0, 1, [0, 0, 1, 1, 0, 0, 0, 0]>, <85, 0, 20, 20, 4, 0, 0, [0, 0, 0, 0, 0, 1, 1, 0]>, <86, 1, 21, 20, 4, 0, 0, [0, 0, 0, 0, 0, 1, 1, 0]>, <87, 2, 22, 20, 4, 0, 0, [0, 0, 0, 0, 0, 1, 1, 0]>, <88, 3, 23, 20, 4, 0, 0, [0, 0, 0, 0, 0, 1, 1, 0]>, <89, 4, 24, 20, 4, 0, 0, [0, 0, 0, 0, 0, 1, 1, 0]>, <90, 5, 25, 20, 4, 0, 0, [0, 0, 0, 0, 0, 1, 1, 0]>, <91, 6, 26, 20, 4, 0, 0, [0, 0, 0, 0, 0, 1, 1, 0]>, <92, 7, 27, 20, 4, 0, 0, [0, 0, 0, 0, 0, 1, 1, 0]>, <93, 8, 28, 20, 4, 0, 0, [0, 0, 0, 0, 0, 1, 1, 0]>, <94, 9, 29, 20, 4, 0, 0, [0, 0, 0, 0, 0, 1, 1, 0]>, <95, 10, 30, 20, 4, 0, 0, [0, 0, 0, 0, 0, 1, 1, 0]>, <96, 11, 31, 20, 4, 0, 0, [0, 0, 0, 0, 0, 1, 1, 0]>, <97, 12, 32, 20, 4, 0, 0, [0, 0, 0, 0, 0, 1, 1, 0]>, <98, 13, 33, 20, 4, 0, 0, [0, 0, 0, 0, 0, 1, 1, 0]>, <99, 14, 34, 20, 4, 0, 0, [0, 0, 0, 0, 0, 1, 1, 0]>, <100, 15, 35, 20, 4, 0, 0, [0, 0, 0, 0, 0, 1, 1, 0]>, <101, 0, 22, 22, 5, 0, 0, [0, 0, 1, 1, 0, 0, 0, 0]>, <102, 1, 23, 22, 5, 0, 0, [0, 0, 1, 1, 0, 0, 0, 0]>, <103, 2, 24, 22, 5, 0, 0, [0, 0, 1, 1, 0, 0, 0, 0]>, <104, 3, 25, 22, 5, 0, 0, [0, 0, 1, 1, 0, 0, 0, 0]>, <105, 4, 26, 22, 5, 0, 0, [0, 0, 1, 1, 0, 0, 0, 0]>, <106, 5, 27, 22, 5, 0, 0, [0, 0, 1, 1, 0, 0, 0, 0]>, <107, 6, 28, 22, 5, 0, 0, [0, 0, 1, 1, 0, 0, 0, 0]>, <108, 7, 29, 22, 5, 0, 0, [0, 0, 1, 1, 0, 0, 0, 0]>, <109, 8, 30, 22, 5, 0, 0, [0, 0, 1, 1, 0, 0, 0, 0]>, <110, 9, 31, 22, 5, 0, 0, [0, 0, 1, 1, 0, 0, 0, 0]>, <111, 10, 32, 22, 5, 0, 0, [0, 0, 1, 1, 0, 0, 0, 0]>, <112, 11, 33, 22, 5, 0, 0, [0, 0, 1, 1, 0, 0, 0, 0]>, <113, 12, 34, 22, 5, 0, 0, [0, 0, 1, 1, 0, 0, 0, 0]>, <114, 13, 35, 22, 5, 0, 0, [0, 0, 1, 1, 0, 0, 0, 0]>, <115, 0, 19, 19, 6, 0, 0, [0, 0, 1, 1, 0, 0, 0, 0]>, <116, 1, 20, 19, 6, 0, 0, [0, 0, 1, 1, 0, 0, 0, 0]>, <117, 2, 21, 19, 6, 0, 0, [0, 0, 1, 1, 0, 0, 0, 0]>, <118, 3, 22, 19, 6, 0, 0, [0, 0, 1, 1, 0, 0, 0, 0]>, <119, 4, 23, 19, 6, 0, 0, [0, 0, 1, 1, 0, 0, 0, 0]>, <120, 5, 24, 19, 6, 0, 0, [0, 0, 1, 1, 0, 0, 0, 0]>, <121, 6, 25, 19, 6, 0, 0, [0, 0, 1, 1, 0, 0, 0, 0]>, <122, 7, 26, 19, 6, 0, 0, [0, 0, 1, 1, 0, 0, 0, 0]>, <123, 8, 27, 19, 6, 0, 0, [0, 0, 1, 1, 0, 0, 0, 0]>, <124, 9, 28, 19, 6, 0, 0, [0, 0, 1, 1, 0, 0, 0, 0]>, <125, 10, 29, 19, 6, 0, 0, [0, 0, 1, 1, 0, 0, 0, 0]>, <126, 11, 30, 19, 6, 0, 0, [0, 0, 1, 1, 0, 0, 0, 0]>, <127, 12, 31, 19, 6, 0, 0, [0, 0, 1, 1, 0, 0, 0, 0]>, <128, 13, 32, 19, 6, 0, 0, [0, 0, 1, 1, 0, 0, 0, 0]>, <129, 14, 33, 19, 6, 0, 0, [0, 0, 1, 1, 0, 0, 0, 0]>, <130, 15, 34, 19, 6, 0, 0, [0, 0, 1, 1, 0, 0, 0, 0]>, <131, 16, 35, 19, 6, 0, 0, [0, 0, 1, 1, 0, 0, 0, 0]>, <132, 0, 18, 18, 7, 0, 0, [0, 0, 0, 0, 1, 1, 0, 0]>, <133, 1, 19, 18, 7, 0, 0, [0, 0, 0, 0, 1, 1, 0, 0]>, <134, 2, 20, 18, 7, 0, 0, [0, 0, 0, 0, 1, 1, 0, 0]>, <135, 3, 21, 18, 7, 0, 0, [0, 0, 0, 0, 1, 1, 0, 0]>, <136, 4, 22, 18, 7, 0, 0, [0, 0, 0, 0, 1, 1, 0, 0]>, <137, 5, 23, 18, 7, 0, 0, [0, 0, 0, 0, 1, 1, 0, 0]>, <138, 6, 24, 18, 7, 0, 0, [0, 0, 0, 0, 1, 1, 0, 0]>, <139, 8, 26, 18, 7, 0, 0, [0, 0, 0, 0, 1, 1, 0, 0]>, <140, 9, 27, 18, 7, 0, 0, [0, 0, 0, 0, 1, 1, 0, 0]>, <141, 10, 28, 18, 7, 0, 0, [0, 0, 0, 0, 1, 1, 0, 0]>, <142, 11, 29, 18, 7, 0, 0, [0, 0, 0, 0, 1, 1, 0, 0]>, <143, 12, 30, 18, 7, 0, 0, [0, 0, 0, 0, 1, 1, 0, 0]>, <144, 13, 31, 18, 7, 0, 0, [0, 0, 0, 0, 1, 1, 0, 0]>, <145, 14, 32, 18, 7, 0, 0, [0, 0, 0, 0, 1, 1, 0, 0]>, <146, 15, 33, 18, 7, 0, 0, [0, 0, 0, 0, 1, 1, 0, 0]>, <147, 16, 34, 18, 7, 0, 0, [0, 0, 0, 0, 1, 1, 0, 0]>, <148, 17, 35, 18, 7, 0, 0, [0, 0, 0, 0, 1, 1, 0, 0]>, <149, 1, 17, 16, 8, 0, 0, [0, 0, 0, 0, 1, 1, 0, 0]>, <150, 2, 18, 16, 8, 0, 0, [0, 0, 0, 0, 1, 1, 0, 0]>, <151, 3, 19, 16, 8, 0, 0, [0, 0, 0, 0, 1, 1, 0, 0]>, <152, 4, 20, 16, 8, 0, 0, [0, 0, 0, 0, 1, 1, 0, 0]>, <153, 5, 21, 16, 8, 0, 0, [0, 0, 0, 0, 1, 1, 0, 0]>, <154, 6, 22, 16, 8, 0, 0, [0, 0, 0, 0, 1, 1, 0, 0]>, <155, 10, 26, 16, 8, 0, 0, [0, 0, 0, 0, 1, 1, 0, 0]>, <156, 11, 27, 16, 8, 0, 0, [0, 0, 0, 0, 1, 1, 0, 0]>, <157, 12, 28, 16, 8, 0, 0, [0, 0, 0, 0, 1, 1, 0, 0]>, <158, 13, 29, 16, 8, 0, 0, [0, 0, 0, 0, 1, 1, 0, 0]>, <159, 14, 30, 16, 8, 0, 0, [0, 0, 0, 0, 1, 1, 0, 0]>, <160, 15, 31, 16, 8, 0, 0, [0, 0, 0, 0, 1, 1, 0, 0]>, <161, 16, 32, 16, 8, 0, 0, [0, 0, 0, 0, 1, 1, 0, 0]>, <162, 17, 33, 16, 8, 0, 0, [0, 0, 0, 0, 1, 1, 0, 0]>, <163, 18, 34, 16, 8, 0, 0, [0, 0, 0, 0, 1, 1, 0, 0]>, <164, 19, 35, 16, 8, 0, 0, [0, 0, 0, 0, 1, 1, 0, 0]>, <165, 0, 17, 17, 9, 0, 0, [0, 0, 0, 1, 1, 0, 0, 0]>, <166, 1, 18, 17, 9, 0, 0, [0, 0, 0, 1, 1, 0, 0, 0]>, <167, 2, 19, 17, 9, 0, 0, [0, 0, 0, 1, 1, 0, 0, 0]>, <168, 3, 20, 17, 9, 0, 0, [0, 0, 0, 1, 1, 0, 0, 0]>, <169, 4, 21, 17, 9, 0, 0, [0, 0, 0, 1, 1, 0, 0, 0]>, <170, 5, 22, 17, 9, 0, 0, [0, 0, 0, 1, 1, 0, 0, 0]>, <171, 6, 23, 17, 9, 0, 0, [0, 0, 0, 1, 1, 0, 0, 0]>, <172, 9, 26, 17, 9, 0, 0, [0, 0, 0, 1, 1, 0, 0, 0]>, <173, 10, 27, 17, 9, 0, 0, [0, 0, 0, 1, 1, 0, 0, 0]>, <174, 11, 28, 17, 9, 0, 0, [0, 0, 0, 1, 1, 0, 0, 0]>, <175, 12, 29, 17, 9, 0, 0, [0, 0, 0, 1, 1, 0, 0, 0]>, <176, 13, 30, 17, 9, 0, 0, [0, 0, 0, 1, 1, 0, 0, 0]>, <177, 14, 31, 17, 9, 0, 0, [0, 0, 0, 1, 1, 0, 0, 0]>, <178, 15, 32, 17, 9, 0, 0, [0, 0, 0, 1, 1, 0, 0, 0]>, <179, 16, 33, 17, 9, 0, 0, [0, 0, 0, 1, 1, 0, 0, 0]>, <180, 17, 34, 17, 9, 0, 0, [0, 0, 0, 1, 1, 0, 0, 0]>, <181, 18, 35, 17, 9, 0, 0, [0, 0, 0, 1, 1, 0, 0, 0]>, <182, 0, 17, 17, 10, 0, 0, [0, 1, 1, 0, 0, 0, 0, 0]>, <183, 1, 18, 17, 10, 0, 0, [0, 1, 1, 0, 0, 0, 0, 0]>, <184, 2, 19, 17, 10, 0, 0, [0, 1, 1, 0, 0, 0, 0, 0]>, <185, 3, 20, 17, 10, 0, 0, [0, 1, 1, 0, 0, 0, 0, 0]>, <186, 4, 21, 17, 10, 0, 0, [0, 1, 1, 0, 0, 0, 0, 0]>, <187, 5, 22, 17, 10, 0, 0, [0, 1, 1, 0, 0, 0, 0, 0]>, <188, 6, 23, 17, 10, 0, 0, [0, 1, 1, 0, 0, 0, 0, 0]>, <189, 9, 26, 17, 10, 0, 0, [0, 1, 1, 0, 0, 0, 0, 0]>, <190, 10, 27, 17, 10, 0, 0, [0, 1, 1, 0, 0, 0, 0, 0]>, <191, 11, 28, 17, 10, 0, 0, [0, 1, 1, 0, 0, 0, 0, 0]>, <192, 12, 29, 17, 10, 0, 0, [0, 1, 1, 0, 0, 0, 0, 0]>, <193, 13, 30, 17, 10, 0, 0, [0, 1, 1, 0, 0, 0, 0, 0]>, <194, 14, 31, 17, 10, 0, 0, [0, 1, 1, 0, 0, 0, 0, 0]>, <195, 15, 32, 17, 10, 0, 0, [0, 1, 1, 0, 0, 0, 0, 0]>, <196, 16, 33, 17, 10, 0, 0, [0, 1, 1, 0, 0, 0, 0, 0]>, <197, 17, 34, 17, 10, 0, 0, [0, 1, 1, 0, 0, 0, 0, 0]>, <198, 18, 35, 17, 10, 0, 0, [0, 1, 1, 0, 0, 0, 0, 0]>, <199, 0, 17, 17, 11, 0, 1, [0, 1, 1, 0, 0, 0, 0, 0]>, <200, 1, 18, 17, 11, 0, 1, [0, 1, 1, 0, 0, 0, 0, 0]>, <201, 2, 19, 17, 11, 0, 1, [0, 1, 1, 0, 0, 0, 0, 0]>, <202, 3, 20, 17, 11, 0, 1, [0, 1, 1, 0, 0, 0, 0, 0]>, <203, 4, 21, 17, 11, 0, 1, [0, 1, 1, 0, 0, 0, 0, 0]>, <204, 5, 22, 17, 11, 0, 1, [0, 1, 1, 0, 0, 0, 0, 0]>, <205, 6, 23, 17, 11, 0, 1, [0, 1, 1, 0, 0, 0, 0, 0]>, <206, 9, 26, 17, 11, 0, 1, [0, 1, 1, 0, 0, 0, 0, 0]>, <207, 10, 27, 17, 11, 0, 1, [0, 1, 1, 0, 0, 0, 0, 0]>, <208, 11, 28, 17, 11, 0, 1, [0, 1, 1, 0, 0, 0, 0, 0]>, <209, 12, 29, 17, 11, 0, 1, [0, 1, 1, 0, 0, 0, 0, 0]>, <210, 13, 30, 17, 11, 0, 1, [0, 1, 1, 0, 0, 0, 0, 0]>, <211, 14, 31, 17, 11, 0, 1, [0, 1, 1, 0, 0, 0, 0, 0]>, <212, 15, 32, 17, 11, 0, 1, [0, 1, 1, 0, 0, 0, 0, 0]>, <213, 16, 33, 17, 11, 0, 1, [0, 1, 1, 0, 0, 0, 0, 0]>, <214, 17, 34, 17, 11, 0, 1, [0, 1, 1, 0, 0, 0, 0, 0]>, <215, 18, 35, 17, 11, 0, 1, [0, 1, 1, 0, 0, 0, 0, 0]>, <216, 0, 20, 20, 12, 0, 0, [1, 1, 0, 0, 0, 0, 0, 0]>, <217, 1, 21, 20, 12, 0, 0, [1, 1, 0, 0, 0, 0, 0, 0]>, <218, 2, 22, 20, 12, 0, 0, [1, 1, 0, 0, 0, 0, 0, 0]>, <219, 3, 23, 20, 12, 0, 0, [1, 1, 0, 0, 0, 0, 0, 0]>, <220, 4, 24, 20, 12, 0, 0, [1, 1, 0, 0, 0, 0, 0, 0]>, <221, 5, 25, 20, 12, 0, 0, [1, 1, 0, 0, 0, 0, 0, 0]>, <222, 6, 26, 20, 12, 0, 0, [1, 1, 0, 0, 0, 0, 0, 0]>, <223, 7, 27, 20, 12, 0, 0, [1, 1, 0, 0, 0, 0, 0, 0]>, <224, 8, 28, 20, 12, 0, 0, [1, 1, 0, 0, 0, 0, 0, 0]>, <225, 9, 29, 20, 12, 0, 0, [1, 1, 0, 0, 0, 0, 0, 0]>, <226, 10, 30, 20, 12, 0, 0, [1, 1, 0, 0, 0, 0, 0, 0]>, <227, 11, 31, 20, 12, 0, 0, [1, 1, 0, 0, 0, 0, 0, 0]>, <228, 12, 32, 20, 12, 0, 0, [1, 1, 0, 0, 0, 0, 0, 0]>, <229, 13, 33, 20, 12, 0, 0, [1, 1, 0, 0, 0, 0, 0, 0]>, <230, 14, 34, 20, 12, 0, 0, [1, 1, 0, 0, 0, 0, 0, 0]>, <231, 15, 35, 20, 12, 0, 0, [1, 1, 0, 0, 0, 0, 0, 0]>, <232, 0, 21, 21, 13, 0, 1, [0, 0, 0, 0, 0, 1, 1, 0]>, <233, 1, 22, 21, 13, 0, 1, [0, 0, 0, 0, 0, 1, 1, 0]>, <234, 2, 23, 21, 13, 0, 1, [0, 0, 0, 0, 0, 1, 1, 0]>, <235, 3, 24, 21, 13, 0, 1, [0, 0, 0, 0, 0, 1, 1, 0]>, <236, 4, 25, 21, 13, 0, 1, [0, 0, 0, 0, 0, 1, 1, 0]>, <237, 5, 26, 21, 13, 0, 1, [0, 0, 0, 0, 0, 1, 1, 0]>, <238, 6, 27, 21, 13, 0, 1, [0, 0, 0, 0, 0, 1, 1, 0]>, <239, 7, 28, 21, 13, 0, 1, [0, 0, 0, 0, 0, 1, 1, 0]>, <240, 8, 29, 21, 13, 0, 1, [0, 0, 0, 0, 0, 1, 1, 0]>, <241, 9, 30, 21, 13, 0, 1, [0, 0, 0, 0, 0, 1, 1, 0]>, <242, 10, 31, 21, 13, 0, 1, [0, 0, 0, 0, 0, 1, 1, 0]>, <243, 11, 32, 21, 13, 0, 1, [0, 0, 0, 0, 0, 1, 1, 0]>, <244, 12, 33, 21, 13, 0, 1, [0, 0, 0, 0, 0, 1, 1, 0]>, <245, 13, 34, 21, 13, 0, 1, [0, 0, 0, 0, 0, 1, 1, 0]>, <246, 14, 35, 21, 13, 0, 1, [0, 0, 0, 0, 0, 1, 1, 0]>, <247, 0, 22, 22, 14, 1, 0, [0, 0, 0, 0, 0, 0, 1, 1]>, <248, 1, 23, 22, 14, 1, 0, [0, 0, 0, 0, 0, 0, 1, 1]>, <249, 2, 24, 22, 14, 1, 0, [0, 0, 0, 0, 0, 0, 1, 1]>, <250, 3, 25, 22, 14, 1, 0, [0, 0, 0, 0, 0, 0, 1, 1]>, <251, 4, 26, 22, 14, 1, 0, [0, 0, 0, 0, 0, 0, 1, 1]>, <252, 5, 27, 22, 14, 1, 0, [0, 0, 0, 0, 0, 0, 1, 1]>, <253, 6, 28, 22, 14, 1, 0, [0, 0, 0, 0, 0, 0, 1, 1]>, <254, 7, 29, 22, 14, 1, 0, [0, 0, 0, 0, 0, 0, 1, 1]>, <255, 8, 30, 22, 14, 1, 0, [0, 0, 0, 0, 0, 0, 1, 1]>, <256, 9, 31, 22, 14, 1, 0, [0, 0, 0, 0, 0, 0, 1, 1]>, <257, 10, 32, 22, 14, 1, 0, [0, 0, 0, 0, 0, 0, 1, 1]>, <258, 11, 33, 22, 14, 1, 0, [0, 0, 0, 0, 0, 0, 1, 1]>, <259, 12, 34, 22, 14, 1, 0, [0, 0, 0, 0, 0, 0, 1, 1]>, <260, 13, 35, 22, 14, 1, 0, [0, 0, 0, 0, 0, 0, 1, 1]>, <261, 0, 22, 22, 15, 0, 1, [1, 0, 0, 0, 0, 0, 0, 1]>, <262, 1, 23, 22, 15, 0, 1, [1, 0, 0, 0, 0, 0, 0, 1]>, <263, 2, 24, 22, 15, 0, 1, [1, 0, 0, 0, 0, 0, 0, 1]>, <264, 3, 25, 22, 15, 0, 1, [1, 0, 0, 0, 0, 0, 0, 1]>, <265, 4, 26, 22, 15, 0, 1, [1, 0, 0, 0, 0, 0, 0, 1]>, <266, 5, 27, 22, 15, 0, 1, [1, 0, 0, 0, 0, 0, 0, 1]>, <267, 6, 28, 22, 15, 0, 1, [1, 0, 0, 0, 0, 0, 0, 1]>, <268, 7, 29, 22, 15, 0, 1, [1, 0, 0, 0, 0, 0, 0, 1]>, <269, 8, 30, 22, 15, 0, 1, [1, 0, 0, 0, 0, 0, 0, 1]>, <270, 9, 31, 22, 15, 0, 1, [1, 0, 0, 0, 0, 0, 0, 1]>, <271, 10, 32, 22, 15, 0, 1, [1, 0, 0, 0, 0, 0, 0, 1]>, <272, 11, 33, 22, 15, 0, 1, [1, 0, 0, 0, 0, 0, 0, 1]>, <273, 12, 34, 22, 15, 0, 1, [1, 0, 0, 0, 0, 0, 0, 1]>, <274, 13, 35, 22, 15, 0, 1, [1, 0, 0, 0, 0, 0, 0, 1]>, <275, 0, 22, 22, 16, 0, 0, [0, 0, 0, 0, 0, 0, 1, 1]>, <276, 1, 23, 22, 16, 0, 0, [0, 0, 0, 0, 0, 0, 1, 1]>, <277, 2, 24, 22, 16, 0, 0, [0, 0, 0, 0, 0, 0, 1, 1]>, <278, 3, 25, 22, 16, 0, 0, [0, 0, 0, 0, 0, 0, 1, 1]>, <279, 4, 26, 22, 16, 0, 0, [0, 0, 0, 0, 0, 0, 1, 1]>, <280, 5, 27, 22, 16, 0, 0, [0, 0, 0, 0, 0, 0, 1, 1]>, <281, 6, 28, 22, 16, 0, 0, [0, 0, 0, 0, 0, 0, 1, 1]>, <282, 7, 29, 22, 16, 0, 0, [0, 0, 0, 0, 0, 0, 1, 1]>, <283, 8, 30, 22, 16, 0, 0, [0, 0, 0, 0, 0, 0, 1, 1]>, <284, 9, 31, 22, 16, 0, 0, [0, 0, 0, 0, 0, 0, 1, 1]>, <285, 10, 32, 22, 16, 0, 0, [0, 0, 0, 0, 0, 0, 1, 1]>, <286, 11, 33, 22, 16, 0, 0, [0, 0, 0, 0, 0, 0, 1, 1]>, <287, 12, 34, 22, 16, 0, 0, [0, 0, 0, 0, 0, 0, 1, 1]>, <288, 13, 35, 22, 16, 0, 0, [0, 0, 0, 0, 0, 0, 1, 1]>, <289, 0, 21, 21, 17, 0, 0, [0, 0, 0, 0, 0, 1, 1, 0]>, <290, 1, 22, 21, 17, 0, 0, [0, 0, 0, 0, 0, 1, 1, 0]>, <291, 2, 23, 21, 17, 0, 0, [0, 0, 0, 0, 0, 1, 1, 0]>, <292, 3, 24, 21, 17, 0, 0, [0, 0, 0, 0, 0, 1, 1, 0]>, <293, 4, 25, 21, 17, 0, 0, [0, 0, 0, 0, 0, 1, 1, 0]>, <294, 5, 26, 21, 17, 0, 0, [0, 0, 0, 0, 0, 1, 1, 0]>, <295, 6, 27, 21, 17, 0, 0, [0, 0, 0, 0, 0, 1, 1, 0]>, <296, 7, 28, 21, 17, 0, 0, [0, 0, 0, 0, 0, 1, 1, 0]>, <297, 8, 29, 21, 17, 0, 0, [0, 0, 0, 0, 0, 1, 1, 0]>, <298, 9, 30, 21, 17, 0, 0, [0, 0, 0, 0, 0, 1, 1, 0]>, <299, 10, 31, 21, 17, 0, 0, [0, 0, 0, 0, 0, 1, 1, 0]>, <300, 11, 32, 21, 17, 0, 0, [0, 0, 0, 0, 0, 1, 1, 0]>, <301, 12, 33, 21, 17, 0, 0, [0, 0, 0, 0, 0, 1, 1, 0]>, <302, 13, 34, 21, 17, 0, 0, [0, 0, 0, 0, 0, 1, 1, 0]>, <303, 14, 35, 21, 17, 0, 0, [0, 0, 0, 0, 0, 1, 1, 0]>, <304, 0, 22, 22, 18, 0, 0, [1, 0, 0, 0, 0, 0, 0, 1]>, <305, 1, 23, 22, 18, 0, 0, [1, 0, 0, 0, 0, 0, 0, 1]>, <306, 2, 24, 22, 18, 0, 0, [1, 0, 0, 0, 0, 0, 0, 1]>, <307, 3, 25, 22, 18, 0, 0, [1, 0, 0, 0, 0, 0, 0, 1]>, <308, 4, 26, 22, 18, 0, 0, [1, 0, 0, 0, 0, 0, 0, 1]>, <309, 5, 27, 22, 18, 0, 0, [1, 0, 0, 0, 0, 0, 0, 1]>, <310, 6, 28, 22, 18, 0, 0, [1, 0, 0, 0, 0, 0, 0, 1]>, <311, 7, 29, 22, 18, 0, 0, [1, 0, 0, 0, 0, 0, 0, 1]>, <312, 8, 30, 22, 18, 0, 0, [1, 0, 0, 0, 0, 0, 0, 1]>, <313, 9, 31, 22, 18, 0, 0, [1, 0, 0, 0, 0, 0, 0, 1]>, <314, 10, 32, 22, 18, 0, 0, [1, 0, 0, 0, 0, 0, 0, 1]>, <315, 11, 33, 22, 18, 0, 0, [1, 0, 0, 0, 0, 0, 0, 1]>, <316, 12, 34, 22, 18, 0, 0, [1, 0, 0, 0, 0, 0, 0, 1]>, <317, 13, 35, 22, 18, 0, 0, [1, 0, 0, 0, 0, 0, 0, 1]>, <318, 0, 18, 18, 19, 0, 1, [0, 1, 1, 0, 0, 0, 0, 0]>, <319, 1, 19, 18, 19, 0, 1, [0, 1, 1, 0, 0, 0, 0, 0]>, <320, 2, 20, 18, 19, 0, 1, [0, 1, 1, 0, 0, 0, 0, 0]>, <321, 3, 21, 18, 19, 0, 1, [0, 1, 1, 0, 0, 0, 0, 0]>, <322, 4, 22, 18, 19, 0, 1, [0, 1, 1, 0, 0, 0, 0, 0]>, <323, 5, 23, 18, 19, 0, 1, [0, 1, 1, 0, 0, 0, 0, 0]>, <324, 6, 24, 18, 19, 0, 1, [0, 1, 1, 0, 0, 0, 0, 0]>, <325, 8, 26, 18, 19, 0, 1, [0, 1, 1, 0, 0, 0, 0, 0]>, <326, 9, 27, 18, 19, 0, 1, [0, 1, 1, 0, 0, 0, 0, 0]>, <327, 10, 28, 18, 19, 0, 1, [0, 1, 1, 0, 0, 0, 0, 0]>, <328, 11, 29, 18, 19, 0, 1, [0, 1, 1, 0, 0, 0, 0, 0]>, <329, 12, 30, 18, 19, 0, 1, [0, 1, 1, 0, 0, 0, 0, 0]>, <330, 13, 31, 18, 19, 0, 1, [0, 1, 1, 0, 0, 0, 0, 0]>, <331, 14, 32, 18, 19, 0, 1, [0, 1, 1, 0, 0, 0, 0, 0]>, <332, 15, 33, 18, 19, 0, 1, [0, 1, 1, 0, 0, 0, 0, 0]>, <333, 16, 34, 18, 19, 0, 1, [0, 1, 1, 0, 0, 0, 0, 0]>, <334, 17, 35, 18, 19, 0, 1, [0, 1, 1, 0, 0, 0, 0, 0]>, <335, 0, 20, 20, 20, 1, 0, [0, 0, 0, 0, 0, 0, 1, 1]>, <336, 1, 21, 20, 20, 1, 0, [0, 0, 0, 0, 0, 0, 1, 1]>, <337, 2, 22, 20, 20, 1, 0, [0, 0, 0, 0, 0, 0, 1, 1]>, <338, 3, 23, 20, 20, 1, 0, [0, 0, 0, 0, 0, 0, 1, 1]>, <339, 4, 24, 20, 20, 1, 0, [0, 0, 0, 0, 0, 0, 1, 1]>, <340, 5, 25, 20, 20, 1, 0, [0, 0, 0, 0, 0, 0, 1, 1]>, <341, 6, 26, 20, 20, 1, 0, [0, 0, 0, 0, 0, 0, 1, 1]>, <342, 7, 27, 20, 20, 1, 0, [0, 0, 0, 0, 0, 0, 1, 1]>, <343, 8, 28, 20, 20, 1, 0, [0, 0, 0, 0, 0, 0, 1, 1]>, <344, 9, 29, 20, 20, 1, 0, [0, 0, 0, 0, 0, 0, 1, 1]>, <345, 10, 30, 20, 20, 1, 0, [0, 0, 0, 0, 0, 0, 1, 1]>, <346, 11, 31, 20, 20, 1, 0, [0, 0, 0, 0, 0, 0, 1, 1]>, <347, 12, 32, 20, 20, 1, 0, [0, 0, 0, 0, 0, 0, 1, 1]>, <348, 13, 33, 20, 20, 1, 0, [0, 0, 0, 0, 0, 0, 1, 1]>, <349, 14, 34, 20, 20, 1, 0, [0, 0, 0, 0, 0, 0, 1, 1]>, <350, 15, 35, 20, 20, 1, 0, [0, 0, 0, 0, 0, 0, 1, 1]>, <351, 0, 20, 20, 21, 0, 0, [0, 0, 0, 1, 1, 0, 0, 0]>, <352, 1, 21, 20, 21, 0, 0, [0, 0, 0, 1, 1, 0, 0, 0]>, <353, 2, 22, 20, 21, 0, 0, [0, 0, 0, 1, 1, 0, 0, 0]>, <354, 3, 23, 20, 21, 0, 0, [0, 0, 0, 1, 1, 0, 0, 0]>, <355, 4, 24, 20, 21, 0, 0, [0, 0, 0, 1, 1, 0, 0, 0]>, <356, 5, 25, 20, 21, 0, 0, [0, 0, 0, 1, 1, 0, 0, 0]>, <357, 6, 26, 20, 21, 0, 0, [0, 0, 0, 1, 1, 0, 0, 0]>, <358, 7, 27, 20, 21, 0, 0, [0, 0, 0, 1, 1, 0, 0, 0]>, <359, 8, 28, 20, 21, 0, 0, [0, 0, 0, 1, 1, 0, 0, 0]>, <360, 9, 29, 20, 21, 0, 0, [0, 0, 0, 1, 1, 0, 0, 0]>, <361, 10, 30, 20, 21, 0, 0, [0, 0, 0, 1, 1, 0, 0, 0]>, <362, 11, 31, 20, 21, 0, 0, [0, 0, 0, 1, 1, 0, 0, 0]>, <363, 12, 32, 20, 21, 0, 0, [0, 0, 0, 1, 1, 0, 0, 0]>, <364, 13, 33, 20, 21, 0, 0, [0, 0, 0, 1, 1, 0, 0, 0]>, <365, 14, 34, 20, 21, 0, 0, [0, 0, 0, 1, 1, 0, 0, 0]>, <366, 15, 35, 20, 21, 0, 0, [0, 0, 0, 1, 1, 0, 0, 0]>};
